p cnf 12 50 
5 -1 -6 0
-2 4 10 0
-8 11 6 0
2 -8 -7 0
-9 11 12 0
-2 -7 3 0
-8 -3 -6 0
3 11 8 0
10 1 3 0
2 -3 5 0
10 4 -12 0
9 1 6 0
-8 -1 -4 0
6 -4 1 0
12 9 -8 0
-2 1 7 0
7 10 5 0
-6 -1 8 0
7 -8 11 0
-9 -1 3 0
-3 -6 8 0
9 5 -2 0
-11 -10 -5 0
-2 -6 3 0
-5 7 8 0
5 11 -10 0
5 1 -10 0
-7 -10 -5 0
-8 -10 5 0
-7 -9 6 0
4 6 -1 0
2 -1 5 0
11 3 1 0
11 1 -8 0
-9 11 -8 0
11 -3 1 0
-11 3 9 0
7 -10 -12 0
-2 -9 -12 0
11 -5 -7 0
-10 -11 1 0
3 9 -7 0
8 4 -12 0
-5 -6 1 0
-8 5 12 0
-7 -9 -11 0
-3 -5 9 0
1 4 3 0
-9 6 5 0
-3 7 -2 0
